# Molecular dynamics NVT script with class2 ff for simulated polymerization

# System
units            real
atom_style       full
dimension        3
newton           on
boundary         p p p

# Styles
pair_style       lj/cut/coul/long 15 15 
pair_modify     mix arithmetic
kspace_style     ewald 1.0e-4
special_bonds   dreiding
bond_style      harmonic
angle_style     harmonic
dihedral_style  charmm
improper_style  umbrella

# Data file input
read_data        data.lmps

# Settings
dielectric       1.0
neighbor         2.0 bin
neigh_modify     delay 0 every 1 check yes
timestep         1.0
run_style        verlet

# Output
thermo_style     custom step vol temp press etotal pe ke evdwl ecoul ebond eangle edihed eimp
thermo           500

# MD step
fix              1 all nvt temp 600 600 100.0
velocity         all create 600 58531416
run              5000
unfix            1

# Data file output
write_data       md.lmps
